; benchmark generated from python API
(set-info :status unknown)
(declare-fun S_4 () Real)
(declare-fun A_2 () Real)
(declare-fun C () Real)
(declare-fun L_2 () Real)
(declare-fun A_1 () Real)
(declare-fun L_1 () Real)
(declare-fun A_3 () Real)
(declare-fun S_2 () Real)
(declare-fun L_0 () Real)
(declare-fun S_0 () Real)
(declare-fun A_0 () Real)
(declare-fun S_1 () Real)
(declare-fun A_4 () Real)
(declare-fun S_3 () Real)
(assert
 (let (($x1241 (>= C 5.0)))
 (let (($x9748 (<= (+ (* (- 2.0) A_0) L_0 (* (- 1.0) C) S_0 A_1) 0.0)))
 (let ((?x803 (* (- 1.0) A_4)))
 (let ((?x2280 (* (- 3.0) C)))
 (let ((?x3765 (* (- 2.0) A_0)))
 (let ((?x741 (* (- 1.0) L_0)))
 (let ((?x750 (* (- 1.0) L_1)))
 (let (($x947 (= ?x750 ?x741)))
 (let (($x11743 (or $x947 (<= (+ L_1 ?x3765 A_3 ?x2280 L_0 S_4 ?x803 S_0) 0.0) (not $x9748))))
 (let (($x9805 (<= (+ (* (- 2.0) C) (* (- 1.0) A_1) L_1 S_4 ?x803 A_3) 0.0)))
 (let ((?x893 (* (- 1.0) A_0)))
 (let ((?x1845 (* (- 1.0) C)))
 (let ((?x762 (* (- 1.0) A_2)))
 (let (($x9771 (<= (+ (* 2.0 L_1) ?x762 ?x1845 A_3 S_4 ?x803 ?x893 S_0) 0.0)))
 (let ((?x753 (* (- 1.0) A_1)))
 (let ((?x2578 (* 2.0 L_2)))
 (let ((?x759 (* (- 1.0) L_2)))
 (let (($x882 (= ?x759 ?x750)))
 (let (($x960 (not $x882)))
 (let (($x11668 (or $x947 $x960 (<= (+ ?x2578 ?x753 A_0 ?x741 ?x762 S_4 ?x803 A_3) 0.0) $x9771)))
 (let (($x6141 (<= (+ ?x2578 ?x753 A_3 (* (- 2.0) C) S_4 ?x803 ?x893 S_0) 0.0)))
 (let ((?x760 (+ A_1 ?x750)))
 (let ((?x1433 (+ A_0 ?x741 C)))
 (let (($x1434 (<= ?x1433 ?x760)))
 (let (($x1457 (not (<= (+ ?x893 L_0 (* (- 2.0) C) A_2 ?x759) 0.0))))
 (let (($x1311 (not $x1434)))
 (let (($x9758 (or (not (<= 0.0 (+ L_1 ?x893 S_0))) (not (<= (+ ?x750 ?x1845 A_1 ?x893 L_0) 0.0)) $x947)))
 (let ((?x3089 (* (- 2.0) L_1)))
 (let ((?x696 (+ A_1 ?x3089 C ?x762 L_2 A_0)))
 (let (($x9658 (>= S_1 ?x696)))
 (let (($x11449 (or $x882 (>= S_1 (+ (* 2.0 A_0) ?x741 (* 2.0 C) ?x762 L_2 ?x750)) $x9658)))
 (let (($x8799 (<= (+ ?x753 L_1 ?x1845 A_2 ?x759) 0.0)))
 (let (($x11566 (or $x947 (<= S_0 (+ (* 2.0 A_0) ?x741 (* 2.0 C) ?x762 L_2 ?x750)) $x8799)))
 (let (($x9044 (or (<= (+ ?x750 C A_1 (* (- 1.0) S_3)) 0.0) (>= S_3 (+ A_0 ?x741 (* 2.0 C))) (<= (+ A_2 ?x759 (* (- 1.0) S_3)) 0.0))))
 (let (($x2210 (<= (+ ?x759 A_3 (* (- 1.0) S_4)) 0.0)))
 (let (($x1822 (<= (+ ?x750 A_1 (* 2.0 C) (* (- 1.0) S_4)) 0.0)))
 (let ((?x950 (* 3.0 C)))
 (let ((?x1259 (+ A_0 ?x741 ?x950)))
 (let (($x1260 (>= S_4 ?x1259)))
 (let (($x41 (>= A_1 A_0)))
 (let (($x42 (>= A_2 A_1)))
 (let (($x43 (>= A_3 A_2)))
 (let (($x44 (>= A_4 A_3)))
 (and (<= ?x750 ?x741) $x44 $x43 $x42 $x41 (<= ?x759 ?x750) (or $x1311 (>= S_2 ?x1433)) (<= S_0 S_1) (or $x1434 (<= (+ ?x750 A_1 (* (- 1.0) S_2)) 0.0)) (or $x882 $x1260 $x1822 $x2210) (<= S_2 (+ A_0 ?x741 (* 2.0 C))) (or (<= ?x760 (+ ?x1845 A_2 ?x759)) $x882) (or (<= (+ C A_2 ?x759 (* (- 1.0) S_4)) 0.0) $x1260 $x1822 $x2210) (<= S_1 ?x1433) (<= S_3 ?x1259) (<= S_4 (+ A_0 ?x741 (* 4.0 C))) $x9044 (or $x882 $x1434 (not $x8799)) (or $x882 (<= (+ ?x1845 ?x762 L_2 S_4 ?x803 A_3) 0.0)) $x11566 (or $x1457 $x882 $x9658) (or (<= S_0 ?x696) $x947 $x1434) $x11449 $x9758 (or $x882 $x1311 $x1457) (or $x947 $x960 $x1434 $x6141) $x11668 (or $x947 $x9748 $x9805) $x11743 $x1241 (<= (+ L_1 ?x1845 ?x753 S_2) 0.0) (<= (+ L_1 ?x753 (* (- 2.0) C) S_3) 0.0) (<= (+ L_2 (* (- 1.0) A_3) S_3) 0.0) (<= (+ ?x1845 ?x762 L_2 S_3) 0.0) (<= (+ L_2 S_4 ?x803) 0.0) (<= (+ L_1 ?x753 S_1) 0.0) (<= (+ ?x893 S_0 L_0) 0.0) (<= (+ ?x762 L_2 S_2) 0.0) (<= (+ L_2 (* (- 1.0) A_3) S_4 ?x1845) 0.0) (<= (+ L_1 ?x753 ?x2280 S_4) 0.0) (<= (+ L_2 (* (- 2.0) C) ?x762 S_4) 0.0))))))))))))))))))))))))))))))))))))))))))))))
(check-sat)
